50	100	100	100
75	17	74
66	19	78
71	39	72
95	25	77
83	38	87
95	16	87
73	28	78
95	20	91
82	41	78
86	6	96
91	11	71
80	30	94
94	35	91
94	21	76
75	43	93
87	19	90
90	48	78
85	5	89
71	3	85
68	30	88
84	33	85
77	43	90
88	45	98
95	44	80
72	16	80
75	49	73
85	44	86
75	37	69
68	45	89
68	37	83
71	13	74
84	40	90
92	31	99
67	22	95
95	5	75
92	4	66
82	6	81
83	6	90
91	19	88
98	39	83
83	24	79
79	14	78
90	27	68
66	25	96
99	10	98
66	26	91
76	24	74
95	11	83
93	28	86
68	39	80
